p cnf 97 332
5 3 0
5 4 0
-3 -4 -5 0
2 5 -6 0
-2 -5 -6 0
2 -5 6 0
-2 5 6 0
7 1 0
7 6 0
-1 -6 -7 0
-10 8 0
-10 9 0
-8 -9 10 0
-10 9 -11 0
10 -9 -11 0
-10 -9 11 0
10 9 11 0
12 -7 0
12 -11 0
7 11 -12 0
14 -13 0
14 -1 0
13 1 -14 0
4 -14 -15 0
-4 14 -15 0
4 14 15 0
-4 -14 15 0
3 15 -16 0
-3 -15 -16 0
3 -15 16 0
-3 15 16 0
-18 17 0
-18 3 0
-17 -3 18 0
-19 16 0
-19 -18 0
-16 18 19 0
20 19 0
20 -15 0
-19 15 -20 0
21 -12 0
21 -20 0
12 20 -21 0
23 22 0
23 14 0
-22 -14 -23 0
-24 23 0
-24 -9 0
-23 9 24 0
-25 -24 0
-25 13 0
24 -13 25 0
26 -17 0
26 25 0
17 -25 -26 0
27 26 0
27 -15 0
-26 15 -27 0
-28 11 0
-28 22 0
-11 -22 28 0
13 -29 0
-13 -29 0
30 -22 0
30 29 0
22 -29 -30 0
31 28 0
31 -30 0
-28 30 -31 0
-32 -31 0
-32 29 0
31 -29 32 0
33 27 0
33 -32 0
-27 32 -33 0
34 -35 -36 0
-34 35 -36 0
34 35 36 0
-34 -35 36 0
37 33 0
37 36 0
-33 -36 -37 0
39 -16 0
39 -38 0
16 38 -39 0
-40 37 0
-40 39 0
-37 -39 40 0
42 -1 0
42 -41 0
1 41 -42 0
-43 23 0
-43 42 0
-23 -42 43 0
-43 -5 -44 0
43 5 -44 0
-43 5 44 0
43 -5 44 0
-45 17 0
-45 -44 0
-17 44 45 0
-45 -42 -46 0
45 42 -46 0
-45 42 46 0
45 -42 46 0
47 -22 0
47 -41 0
22 41 -47 0
-48 22 0
-48 47 0
-22 -47 48 0
-49 -46 0
-49 48 0
46 -48 49 0
-43 -17 -50 0
43 17 -50 0
-43 17 50 0
43 -17 50 0
-49 50 -51 0
49 -50 -51 0
-49 -50 51 0
49 50 51 0
52 41 0
52 -42 0
-41 42 -52 0
9 -52 -53 0
-9 52 -53 0
9 52 53 0
-9 -52 53 0
-54 23 0
-54 -34 0
-23 34 54 0
46 54 -55 0
-46 -54 -55 0
46 -54 55 0
-46 54 55 0
-56 53 0
-56 55 0
-53 -55 56 0
-57 51 0
-57 -56 0
-51 56 57 0
40 -57 -58 0
-40 57 -58 0
40 57 58 0
-40 -57 58 0
21 58 -59 0
-21 -58 -59 0
21 -58 59 0
-21 58 59 0
18 -54 -60 0
-18 54 -60 0
18 54 60 0
-18 -54 60 0
50 46 -61 0
-50 -46 -61 0
50 -46 61 0
-50 46 61 0
-62 -61 0
-62 -46 0
61 46 62 0
-63 -60 0
-63 -62 0
60 62 63 0
34 -15 -64 0
-34 15 -64 0
34 15 64 0
-34 -15 64 0
-65 6 0
-65 16 0
-6 -16 65 0
-66 19 0
-66 -15 0
-19 15 66 0
67 -65 0
67 -66 0
65 66 -67 0
68 -64 0
68 -67 0
64 67 -68 0
-69 -63 0
-69 68 0
63 -68 69 0
46 -50 -70 0
-46 50 -70 0
46 50 70 0
-46 -50 70 0
71 69 0
71 -70 0
-69 70 -71 0
-72 14 -73 0
72 -14 -73 0
-72 -14 73 0
72 14 73 0
38 -73 -74 0
-38 73 -74 0
38 73 74 0
-38 -73 74 0
75 -74 0
75 -34 0
74 34 -75 0
76 -11 0
76 54 0
11 -54 -76 0
-77 -75 0
-77 -76 0
75 76 77 0
78 -16 0
78 54 0
16 -54 -78 0
-29 -4 -79 0
29 4 -79 0
-29 4 79 0
29 -4 79 0
80 34 0
80 -2 0
-34 2 -80 0
-79 -80 -81 0
79 80 -81 0
-79 80 81 0
79 -80 81 0
-78 81 -82 0
78 -81 -82 0
-78 -81 82 0
78 81 82 0
-77 82 -83 0
77 -82 -83 0
-77 -82 83 0
77 82 83 0
-13 14 -84 0
13 -14 -84 0
-13 -14 84 0
13 14 84 0
25 43 -85 0
-25 -43 -85 0
25 -43 85 0
-25 43 85 0
-86 -84 0
-86 -85 0
84 85 86 0
-74 -87 0
74 -87 0
-88 23 0
-88 1 0
-23 -1 88 0
-89 88 0
-89 -6 0
-88 6 89 0
90 -49 0
90 89 0
49 -89 -90 0
87 90 -91 0
-87 -90 -91 0
87 -90 91 0
-87 90 91 0
-27 -9 -92 0
27 9 -92 0
-27 9 92 0
27 -9 92 0
93 -91 0
93 92 0
91 -92 -93 0
-86 -93 -94 0
86 93 -94 0
-86 93 94 0
86 -93 94 0
-83 94 -95 0
83 -94 -95 0
-83 -94 95 0
83 94 95 0
96 -71 0
96 95 0
71 -95 -96 0
-97 -59 0
-97 -96 0
59 96 97 0
16 -64 -61 77 -9 -17 0
33 -77 -64 -22 -6 0
25 52 -76 -59 90 -6 0
-53 -35 18 89 90 13 0
56 52 -54 60 0
93 44 12 78 39 0
55 46 67 45 65 0
-30 -85 57 43 -83 0
-84 87 0
-59 14 58 -80 -3 0
-85 3 -2 11 0
-30 1 16 0
47 -59 0
-81 94 -63 0
65 75 -13 -23 38 47 0
90 -80 4 11 -43 46 0
31 32 0
56 -34 0
58 26 24 69 0
78 80 81 -49 45 0
11 85 -95 40 -91 -64 0
-1 -86 -80 0
56 -31 62 52 84 -72 0
-88 73 86 0
-68 3 0
93 -5 73 0
-65 -97 50 80 38 63 0
16 -11 76 -19 -96 0
-92 -73 -96 0
-40 85 -32 10 -81 0
59 94 -91 -1 0
59 -2 0
-29 -40 97 -15 0
48 -46 -47 -34 -78 0
1 83 -19 41 0
31 -41 79 -23 22 0
63 11 15 56 7 0
-10 -12 -48 0
81 8 -30 84 0
-27 -70 35 87 32 -88 0
71 89 54 4 -41 0
-77 -75 43 21 -78 0
52 92 0
-77 -62 -68 -38 47 0
48 49 -73 -79 25 0
-79 -10 0
-15 13 -51 -10 -46 0
19 16 34 53 0
3 64 82 77 96 -16 0
81 65 -43 -69 0
-65 8 51 0
6 -42 5 -38 0
70 -30 -58 56 20 0
20 34 66 67 0
43 -38 95 -51 -7 -52 0
97 0
